
Log started (V11.0.0) Tue May 13 17:38:03 2008

Tried aggregator 1 time.
Reduced MIP has 110 rows, 1001 columns, and 2010 nonzeros.
Presolve time =    0.01 sec.
Clique table members: 100.
MIP emphasis: balance optimality and feasibility.
MIP search method: dynamic search.
Parallel mode: none, using 1 thread.
Root relaxation solution time =    0.02 sec.

        Nodes                                         Cuts/
   Node  Left     Objective  IInf  Best Integer     Best Node    ItCnt     Gap

*     0+    0                         9897.0000      432.0091      165   95.63%
*     0+    0                          470.0000      432.0091      165    8.08%
      0     0      433.0000    20      470.0000      Fract: 6      180    7.87%
*     0+    0                          461.0000      433.0000      180    6.07%
      0     0      433.2419    23      461.0000     Covers: 1      196    6.02%
*     0+    0                          456.0000      433.2419      196    4.99%
      0     0      436.6815    37      456.0000   MIRcuts: 10      268    4.24%
      0     0      437.7403    36      456.0000      Cuts: 11      335    4.00%
      0     0      437.8357    47      456.0000       Cuts: 7      366    3.98%
      0     0      437.9002    58      456.0000    MIRcuts: 5      422    3.97%
*     0+    0                          454.0000      437.9002      422    3.55%
      0     0      437.9615    56      454.0000    MIRcuts: 5      469    3.53%
      0     0      438.0589    67      454.0000       Cuts: 6      511    3.51%
      0     0      438.1289    71      454.0000    MIRcuts: 4      564    3.50%
*     0+    0                          453.0000      438.1289      564    3.28%
      0     0      438.1921    76      453.0000    MIRcuts: 6      594    3.27%
      0     0      438.6834    64      453.0000    MIRcuts: 4      666    3.16%
      0     0      438.7803    65      453.0000       Cuts: 6      700    3.14%
      0     0      438.7969    68      453.0000       Cuts: 4      722    3.14%
      0     0      438.8428    71      453.0000       Cuts: 5      755    3.13%
*     0+    0                          447.0000      438.8428      755    1.82%
*     0+    0                          444.0000      438.8428      755    1.16%
      0     2      438.8428    71      444.0000      438.8428      755    1.16%
*   100+   64                          443.0000      439.0000     3899    0.90%
    100    65      439.0095    45      443.0000      439.0000     3899    0.90%
    200   156      440.0547    23      443.0000      439.0000     6546    0.90%
    300   168      441.0000    16      443.0000      439.0000     9192    0.90%
    400   198      440.0000    18      443.0000      439.0000    11226    0.90%
    500   281      442.0000    18      443.0000      442.0000    14250    0.23%
    600   254    infeasible            443.0000      442.0000    19756    0.23%
    700   164    infeasible            443.0000      442.0000    30689    0.23%
    800   136      442.0000    29      443.0000      442.0000    39799    0.23%
    900    71    infeasible            443.0000      442.0000    60734    0.23%
   1000    49    infeasible            443.0000      442.0000    85494    0.23%
Elapsed time =  11.00 sec. (tree size =  0.02 MB, solutions = 9)

Cover cuts applied:  78
Mixed integer rounding cuts applied:  12
Gomory fractional cuts applied:  5

Solution pool: 9 solutions saved.

MIP - Integer optimal solution:  Objective = 4.4300000000e+002
Solution time =   12.61 sec.  Iterations = 103130  Nodes = 1069


Incumbent solution
Variable Name           Solution Value
Cmax                        443.000000
X_1_5                         1.000000
X_2_9                         1.000000
X_3_5                         1.000000
X_4_4                         1.000000
X_5_3                         1.000000
X_6_9                         1.000000
X_7_7                         1.000000
X_8_1                         1.000000
X_9_10                        1.000000
X_10_6                        1.000000
X_11_5                        1.000000
X_12_2                        1.000000
X_13_8                        1.000000
X_14_5                        1.000000
X_15_9                        1.000000
X_16_1                        1.000000
X_17_8                        1.000000
X_18_5                        1.000000
X_19_2                        1.000000
X_20_5                        1.000000
X_21_5                        1.000000
X_22_8                        1.000000
X_23_5                        1.000000
X_24_5                        1.000000
X_25_3                        1.000000
X_26_2                        1.000000
X_27_6                        1.000000
X_28_10                       1.000000
X_29_5                        1.000000
X_30_9                        1.000000
X_31_1                        1.000000
X_32_7                        1.000000
X_33_5                        1.000000
X_34_7                        1.000000
X_35_2                        1.000000
X_36_1                        1.000000
X_37_1                        1.000000
X_38_10                       1.000000
X_39_2                        1.000000
X_40_5                        1.000000
X_41_2                        1.000000
X_42_7                        1.000000
X_43_5                        1.000000
X_44_5                        1.000000
X_45_9                        1.000000
X_46_5                        1.000000
X_47_7                        1.000000
X_48_9                        1.000000
X_49_6                        1.000000
X_50_6                        1.000000
X_51_5                        1.000000
X_52_3                        1.000000
X_53_8                        1.000000
X_54_8                        1.000000
X_55_5                        1.000000
X_56_7                        1.000000
X_57_5                        1.000000
X_58_9                        1.000000
X_59_5                        1.000000
X_60_5                        1.000000
X_61_2                        1.000000
X_62_7                        1.000000
X_63_9                        1.000000
X_64_1                        1.000000
X_65_2                        1.000000
X_66_5                        1.000000
X_67_9                        1.000000
X_68_8                        1.000000
X_69_5                        1.000000
X_70_8                        1.000000
X_71_3                        1.000000
X_72_8                        1.000000
X_73_2                        1.000000
X_74_5                        1.000000
X_75_3                        1.000000
X_76_3                        1.000000
X_77_5                        1.000000
X_78_4                        1.000000
X_79_9                        1.000000
X_80_6                        1.000000
X_81_5                        1.000000
X_82_2                        1.000000
X_83_8                        1.000000
X_84_4                        1.000000
X_85_4                        1.000000
X_86_9                        1.000000
X_87_8                        1.000000
X_88_1                        1.000000
X_89_3                        1.000000
X_90_5                        1.000000
X_91_3                        1.000000
X_92_5                        1.000000
X_93_2                        1.000000
X_94_3                        1.000000
X_95_5                        1.000000
X_96_5                        1.000000
X_97_9                        1.000000
X_98_3                        1.000000
X_99_10                       1.000000
X_100_5                       1.000000
All other variables in the range 1-1001 are 0.
